c @top --> 19
c p10 --> 18
c p8 --> 17
c p3 --> 16
c p11 --> 14
c p14 --> 1
c p13 --> 2
c p7 --> 15
c p0@v1 --> 4
c p1 --> 9
c p6 --> 11
c p0@v2 --> 5
c p0@v0 --> 3
c p5 --> 10
c p0@v3 --> 6
c p9 --> 7
c p12 --> 8
c p2 --> 12
c p4 --> 13
p cnf 19 11
-5 7 0
7 -4 0
7 -6 0
3 4 5 6 0
-3 -4 0
-3 -5 0
-3 -6 0
-4 -5 0
-4 -6 0
-5 -6 0
19 -19 0
